Gamma-point only Automatic mesh
0              ! number of k-points = 0 ->automatic generation scheme
Gamma          ! generate a Gamma centered grid
8 8 2  
